000 -99 000 000 -99 000 000 000 -99 -99 -99 -99 -99 000 000 -99 000 000 000 000 -99 -99 000 000 000 000 -99 -99 000 -99 000
000 000 000 000 000 000 000 000 000 -99 -99 -99 -99 000 000 000 000 000 -99 000 -99 -99 -99 000 000 000 -99 -99 000 -99 000
-99 000 000 000 000 000 000 000 -99 -99 -99 -99 -99 -99 000 000 -99 -99 -99 000 000 000 000 000 000 000 000 -99 -99 -99 000
000 000 000 000 000 000 000 -99 000 000 -99 -99 -99 -99 000 000 -99 -99 -99 000 000 000 000 000 000 000 000 -99 -99 -99 -99
000 000 000 000 000 000 000 000 000 000 -99 -99 000 -99 -99 000 -99 -99 -99 -99 000 000 -99 000 000 000 -99 -99 -99 -99 -99
000 000 000 000 000 000 000 000 000 000 000 -99 000 -99 -99 000 -99 -99 -99 -99 000 000 000 000 000 000 -99 -99 -99 -99 -99
000 000 000 000 000 000 -99 000 000 000 000 -99 -99 000 -99 -99 000 000 -99 -99 000 000 000 000 000 000 -99 -99 -99 -99 -99
000 000 000 000 000 000 000 -99 000 000 000 -99 -99 -99 -99 -99 000 000 -99 -99 -99 000 000 000 000 -99 -99 -99 -99 000 000
000 000 000 000 000 000 -99 000 000 000 -99 000 -99 -99 -99 -99 000 000 -99 -99 -99 000 000 000 000 -99 -99 -99 -99 000 000
000 000 000 000 000 000 -99 -99 000 000 000 000 -99 -99 -99 000 000 000 000 000 -99 000 -99 -99 000 -99 000 000 -99 000 000
000 000 000 000 000 -99 000 000 000 000 000 000 000 -99 000 000 000 000 000 -99 -99 000 -99 000 000 -99 000 000 -99 000 000
000 000 000 000 000 000 000 000 000 000 000 000 000 -99 000 000 000 000 000 000 000 000 -99 000 000 -99 -99 -99 -99 000 000
-99 000 000 000 000 000 000 000 000 000 000 000 000 000 000 000 000 000 000 000 000 000 -99 000 000 000 -99 000 000 000 000
000 000 000 000 000 000 000 000 -99 000 000 000 000 000 000 000 000 000 000 000 000 000 -99 000 000 000 -99 -99 000 -99 -99
000 000 -99 000 000 000 000 -99 -99 -99 -99 000 000 001 001 002 001 001 001 001 000 000 -99 000 000 000 000 000 000 -99 -99
000 -99 000 000 000 000 000 000 -99 -99 -99 000 005 006 006 013 004 003 006 004 001 000 000 000 000 000 000 000 -99 -99 -99
000 -99 000 000 000 000 000 000 000 000 000 000 007 027 018 028 008 008 038 020 002 001 000 000 000 000 000 000 -99 -99 -99
000 -99 000 -99 -99 -99 000 000 000 000 000 000 008 026 026 026 016 011 044 033 003 001 000 000 000 -99 000 000 -99 -99 -99
000 000 000 000 -99 -99 000 000 000 000 000 004 012 025 028 025 025 024 052 044 010 004 001 -99 -99 -99 -99 -99 -99 -99 000
000 000 000 000 000 000 000 000 000 005 008 010 023 028 026 015 017 028 037 072 050 010 001 -99 -99 -99 -99 -99 -99 -99 -99
000 000 000 000 000 000 001 000 000 005 021 015 013 011 013 009 005 016 061 123 061 011 000 -99 -99 -99 -99 -99 -99 -99 -99
000 000 000 000 000 000 001 001 002 004 022 015 007 007 007 004 003 008 021 052 021 004 001 -99 -99 -99 -99 -99 -99 -99 -99
000 000 000 000 001 000 000 002 003 006 016 013 004 004 002 002 001 008 015 039 012 002 002 -99 -99 -99 -99 -99 -99 -99 -99
000 000 000 000 000 000 001 002 005 005 005 004 004 002 000 001 001 006 006 010 004 002 011 004 -99 -99 -99 -99 -99 -99 -99
000 000 000 000 000 000 001 000 002 005 003 005 001 002 001 000 001 002 001 001 002 010 031 005 -99 -99 -99 -99 -99 -99 -99
000 000 000 000 000 000 001 001 001 001 002 001 001 001 000 000 001 001 000 000 001 017 028 006 -99 -99 -99 -99 -99 -99 000
000 000 000 000 000 001 001 002 002 001 001 001 001 001 000 000 001 000 000 000 000 006 012 -99 -99 -99 -99 -99 -99 -99 -99
000 000 000 000 000 001 003 001 003 002 001 000 001 000 000 000 000 000 000 000 000 003 004 -99 -99 -99 -99 -99 -99 -99 000
001 001 001 002 002 001 003 002 002 001 002 001 001 000 000 000 000 000 000 000 000 000 -99 -99 -99 -99 -99 -99 -99 -99 000
001 001 002 003 002 002 002 003 003 002 002 001 000 000 000 000 000 000 000 000 000 000 -99 -99 -99 -99 -99 -99 -99 -99 000
001 002 002 002 003 005 004 003 003 002 001 000 000 000 000 000 000 000 000 000 000 000 -99 -99 -99 001 000 -99 -99 -99 000
001 001 001 001 002 003 005 002 002 001 001 000 000 000 000 000 000 000 000 000 -99 -99 -99 -99 000 000 000 -99 001 001 001
000 000 000 001 001 003 006 002 002 002 001 001 001 001 000 000 000 000 000 000 -99 -99 000 000 000 000 000 000 001 001 000
000 000 000 000 001 004 004 002 003 003 003 002 001 001 000 000 000 000 000 000 -99 -99 000 000 000 000 000 000 002 001 000
000 000 001 001 001 004 009 005 002 005 002 002 002 001 000 000 000 000 000 000 000 -99 000 000 000 000 000 001 002 001 000
000 000 000 001 002 004 011 003 002 005 002 001 000 000 000 000 000 -99 -99 000 000 000 000 000 000 000 000 001 002 001 000
000 000 000 001 004 006 006 002 002 006 002 002 000 000 000 000 000 -99 -99 000 000 000 000 000 000 000 000 000 002 000 000
000 000 002 003 005 006 005 001 003 003 001 005 001 000 000 000 000 -99 -99 -99 000 000 000 000 000 000 000 000 000 000 000
001 001 004 006 008 005 001 001 001 001 001 001 000 000 000 000 000 -99 -99 -99 000 000 000 000 000 000 000 000 000 000 -99
001 001 006 013 011 009 005 002 002 000 000 000 000 000 000 000 000 -99 -99 -99 000 000 000 000 -99 000 000 000 000 000 -99
001 002 002 013 011 012 009 006 004 004 001 000 000 000 000 000 -99 -99 000 000 000 -99 -99 -99 -99 000 000 -99 -99 000 000
003 003 005 012 010 011 007 011 014 006 003 001 001 000 000 000 -99 000 000 000 000 -99 000 000 000 -99 -99 -99 -99 000 000
004 006 006 011 006 002 002 006 009 007 003 003 002 000 000 000 000 000 000 000 -99 000 000 000 000 000 -99 -99 -99 -99 000
012 006 021 010 003 002 001 002 002 004 002 002 001 000 000 000 000 000 000 000 -99 000 000 000 000 -99 -99 -99 -99 -99 000
011 011 013 014 010 003 001 001 001 001 000 000 000 000 000 000 000 -99 000 -99 -99 000 000 000 000 -99 -99 -99 -99 -99 000
007 008 014 026 013 003 001 000 000 000 000 000 000 000 000 000 000 -99 -99 -99 000 000 -99 000 000 -99 -99 -99 -99 -99 000
005 005 007 007 009 002 000 000 000 000 000 000 000 001 000 000 -99 -99 -99 000 000 000 000 000 000 -99 -99 -99 -99 -99 000
006 006 006 002 001 000 000 000 000 000 000 000 000 000 000 000 -99 -99 -99 000 000 000 000 000 000 000 -99 -99 000 -99 -99
012 046 009 001 000 000 000 000 -99 -99 000 000 000 000 000 -99 -99 -99 -99 000 000 000 000 000 000 000 -99 000 000 -99 -99
017 028 014 000 000 000 -99 -99 -99 000 000 -99 -99 -99 -99 -99 -99 -99 000 000 000 000 000 000 000 -99 -99 000 000 -99 -99
014 016 001 000 -99 -99 -99 000 000 000 -99 -99 -99 -99 -99 -99 -99 -99 000 000 -99 -99 -99 -99 -99 -99 000 000 000 -99 -99
002 001 000 -99 -99 -99 000 000 000 -99 -99 -99 -99 -99 -99 -99 -99 000 000 000 -99 -99 -99 -99 -99 -99 -99 -99 -99 -99 -99
000 000 -99 -99 -99 -99 000 000 -99 -99 -99 -99 -99 000 -99 -99 -99 000 000 000 -99 -99 -99 -99 -99 -99 -99 -99 -99 -99 -99
-99 -99 -99 -99 -99 -99 -99 -99 -99 -99 -99 -99 -99 -99 -99 -99 000 000 000 -99 -99 -99 -99 -99 -99 -99 -99 -99 -99 -99 -99
-99 -99 -99 -99 -99 -99 -99 -99 -99 -99 -99 -99 -99 -99 -99 -99 000 000 000 -99 -99 -99 -99 -99 -99 -99 -99 -99 -99 -99 -99
